#.\compute_min.py
# GMT Thu Nov 14 06:58:34 2024
# 
160426
238797
230602
29777
138891
163221
170420
94591
343518
324352
14251
156835
470453
419060
564598
164465
210073
125258
20681
4693
206762
2488
183590
181474
2374
112888
405479
74072
388067
81995
92204
234957
187400
109141
347464
177878
134851
553028
8016
578386
326699
488979
355921
73956
72458
202544
103917
154577
194058
88351
179873
602184
74344
63890
999
167736
240387
645056
206924
12830
227174
236920
107394
519716
21824
223037
377979
350824
20728
246165
76543
138972
444678
586900
68208
517400
337725
129564
237154
63574
60288
5930
116590
8782
469990
88864
110835
212925
315859
43688
2181
48369
196476
471323
234737
126081
507937
97187
590036
201735
